HUN,8,6,429
5,25,4,24,3,12,0,20,2,5,1,11
5,28,3,12,2,22,1,12,4,19,0,10
2,29,5,21,0,12,4,20,3,14,1,4
3,6,0,5,2,6,5,28,1,13,4,3
4,2,1,4,5,2,0,12,3,29,2,3
3,24,4,3,5,4,1,20,2,30,0,15
5,4,2,2,0,13,1,18,4,10,3,16
1,7,4,25,0,18,5,22,3,11,2,30
